Minimize
  obj: x0 + x1 + x2 + x3 + x4 + x5 + x6 + x7 + x8 + x9

Subject To
  c0: x1 + x2 + x4 + x6 = 32
  c1: x1 + x5 = 17
  c2: x2 + x3 + x4 + x8 = 17
  c3: x1 + x5 + x7 = 35
  c4: x2 + x7 = 19
  c5: x0 + x2 + x3 + x4 + x5 + x9 = 234
  c6: x2 + x8 + x9 = 10
  c7: x1 + x2 + x4 + x8 = 19
  c8: x0 + x1 + x2 + x6 + x7 = 234

Bounds
  x0 >= 0
  x1 >= 0
  x2 >= 0
  x3 >= 0
  x4 >= 0
  x5 >= 0
  x6 >= 0
  x7 >= 0
  x8 >= 0
  x9 >= 0

Generals
  x0 x1 x2 x3 x4 x5 x6 x7 x8 x9

End
